rust/resources/1obj_1cons_all_variables_with_bounds.lp
\ Comment line

Max
 cost: -2 x - 3y +4z
Subject To
 cons: 4.4 x + 5.5y + 6.6z  <= 120
Bounds
 x free
 10 <= y <= 12
Binary
 z
General
 y
End
