rust/resources/mps/1obj_1cons_all_variables_with_bounds.mps
NAME        1obj_1cons_all_variables_with_bounds
OBJSENSE
  MAX
ROWS
 N  cost
 L  cons
COLUMNS
    x         cost      -2
    x         cons      4.4
    MARK0000  'MARKER'                 'INTORG'
    y         cost      -3
    y         cons      5.5
    z         cost      4
    z         cons      6.6
    MARK0001  'MARKER'                 'INTEND'
RHS
    RHS_V     cons      120
BOUNDS
 FR BOUND     x
 LI BOUND     y         10
 UI BOUND     y         12
 BV BOUND     z
ENDATA
